15
2 0 6
3 0 2
3 2 4
4 3 1
5 0 6
5 4 5
6 1 2
6 4 2
6 5 2
7 1 3
7 5 2
8 0 2
8 1 2
8 2 4
8 4 6
8 6 2
8 7 4
9 0 5
9 1 3
9 2 5
9 6 1
9 8 6
10 0 6
10 1 3
10 2 1
10 3 3
10 4 1
10 7 3
10 8 6
10 9 3
11 1 1
11 2 1
11 3 3
11 4 5
11 5 6
11 6 2
11 8 5
12 0 5
12 1 1
12 3 6
12 7 5
12 10 5
13 0 4
13 1 2
13 6 6
13 7 2
13 9 3
14 0 3
14 1 1
14 2 3
14 3 1
14 5 6
14 9 5
